
Gurobi 9.5.0 (linux64) logging started Thu Dec  7 22:32:31 2023

Set parameter LogFile to value "/lustre1/scratch/348/vsc34888/JointResearch/05.Models/06.Benchmarking/B.Operation_cost/RTS24_mod1_ByStages_nc90/openStarNet_RTS24_mod1_ByStages_nc90.log"
Set parameter Method to value 2
Set parameter MIPFocus to value 1
Set parameter Presolve to value 2
Set parameter RINS to value 100
Set parameter MIPGap to value 0.01
Set parameter Threads to value 36
Set parameter TimeLimit to value 259200
Set parameter IterationLimit to value 760000000
Gurobi Optimizer version 9.5.0 build v9.5.0rc5 (linux64)
Thread count: 36 physical cores, 36 logical processors, using up to 36 threads
Optimize a model with 38343 rows, 25884 columns and 104497 nonzeros
Model fingerprint: 0x8eaec70d
Variable types: 25863 continuous, 21 integer (21 binary)
Coefficient statistics:
  Matrix range     [8e-04, 6e+02]
  Objective range  [1e+00, 1e+00]
  Bounds range     [3e-05, 3e+00]
  RHS range        [3e-05, 3e+00]
Presolve removed 22834 rows and 13126 columns
Presolve time: 0.14s
Presolved: 15509 rows, 12758 columns, 56000 nonzeros
Variable types: 12737 continuous, 21 integer (21 binary)
Found heuristic solution: objective 105.3920182
Root relaxation presolve removed 2 rows and 2 columns
Root relaxation presolved: 15507 rows, 12756 columns, 55996 nonzeros

Root barrier log...

Ordering time: 0.01s

Barrier statistics:
 Dense cols : 21
 AA' NZ     : 1.040e+05
 Factor NZ  : 2.977e+05 (roughly 14 MB of memory)
 Factor Ops : 6.102e+06 (less than 1 second per iteration)
 Threads    : 36

                  Objective                Residual
Iter       Primal          Dual         Primal    Dual     Compl     Time
   0   1.38321779e+06 -9.94500817e+07  5.30e+00 2.86e+02  7.76e+03     0s
   1   1.94890813e+05 -2.56709618e+07  6.86e-01 3.02e-09  1.07e+03     0s
   2   7.21273311e+04 -5.11452157e+06  1.88e-01 2.23e-09  1.85e+02     0s
   3   3.06074168e+04 -6.75107309e+05  4.37e-03 6.57e-10  1.98e+01     0s
   4   1.12060920e+04 -1.00691698e+05  6.40e-05 1.42e-10  3.10e+00     0s
   5   2.74818665e+03 -1.65654989e+04  6.38e-06 1.71e-11  5.34e-01     0s
   6   6.83082480e+02 -3.91184330e+03  1.77e-07 4.21e-12  1.27e-01     0s
   7   4.38996909e+02 -1.18536239e+03  7.66e-08 1.82e-12  4.49e-02     0s
   8   2.19549007e+02 -3.32130625e+02  2.37e-08 1.82e-12  1.53e-02     0s
   9   1.52204233e+02 -1.53950705e+02  1.23e-08 9.09e-13  8.47e-03     0s
  10   1.10074378e+02 -4.65266038e+01  5.94e-09 1.82e-12  4.33e-03     0s
  11   8.41904384e+01  3.70417734e+01  2.45e-09 9.09e-13  1.30e-03     0s
  12   7.64608346e+01  4.54949077e+01  1.51e-09 1.82e-12  8.57e-04     0s
  13   7.11328773e+01  5.34466762e+01  9.07e-10 9.09e-13  4.89e-04     0s
  14   6.86927373e+01  5.52863254e+01  6.34e-10 1.82e-12  3.71e-04     0s
  15   6.66748509e+01  5.66156394e+01  4.06e-10 9.09e-13  2.78e-04     0s
  16   6.55872858e+01  5.90625353e+01  2.80e-10 9.09e-13  1.81e-04     0s
  17   6.47133575e+01  6.07690270e+01  1.79e-10 9.09e-13  1.09e-04     1s
  18   6.39448306e+01  6.18584583e+01  9.03e-11 1.82e-12  5.77e-05     1s
  19   6.37117612e+01  6.23317746e+01  6.34e-11 9.09e-13  3.82e-05     1s
  20   6.35545405e+01  6.25434924e+01  4.50e-11 9.09e-13  2.80e-05     1s
  21   6.34193960e+01  6.26795728e+01  2.97e-11 1.82e-12  2.05e-05     1s
  22   6.33274367e+01  6.29540956e+01  1.90e-11 9.09e-13  1.03e-05     1s
  23   6.32316863e+01  6.30855174e+01  8.88e-12 9.09e-13  4.04e-06     1s
  24   6.31946295e+01  6.31397781e+01  6.29e-12 9.09e-13  1.52e-06     1s
  25   6.31698228e+01  6.31625279e+01  1.75e-11 2.73e-12  2.02e-07     1s
  26   6.31663362e+01  6.31643072e+01  2.27e-11 1.82e-12  5.61e-08     1s
  27   6.31651879e+01  6.31650821e+01  2.10e-11 1.82e-12  2.93e-09     1s
  28   6.31651199e+01  6.31651190e+01  3.41e-10 1.82e-12  2.44e-11     1s
  29   6.31651198e+01  6.31651198e+01  9.47e-12 1.82e-12  2.44e-14     1s

Barrier solved model in 29 iterations and 0.59 seconds (0.50 work units)
Optimal objective 6.31651198e+01


Root relaxation: objective 6.316512e+01, 2448 iterations, 0.41 seconds (0.30 work units)

    Nodes    |    Current Node    |     Objective Bounds      |     Work
 Expl Unexpl |  Obj  Depth IntInf | Incumbent    BestBd   Gap | It/Node Time

     0     0   63.16512    0   17  105.39202   63.16512  40.1%     -    1s
     0     0   63.81870    0   10  105.39202   63.81870  39.4%     -    1s
H    0     0                     102.6018307   63.81870  37.8%     -    1s
H    0     0                      96.8572436   63.90851  34.0%     -    1s
     0     0   63.90851    0   12   96.85724   63.90851  34.0%     -    1s
H    0     0                      95.1525497   64.21765  32.5%     -    2s
     0     0   64.28683    0   11   95.15255   64.28683  32.4%     -    2s
     0     0   64.28683    0   12   95.15255   64.28683  32.4%     -    2s
     0     0   64.31082    0   13   95.15255   64.31082  32.4%     -    2s
     0     0   64.31631    0   14   95.15255   64.31631  32.4%     -    2s
H    0     0                      91.5525705   64.55029  29.5%     -    3s
     0     0   64.55029    0   16   91.55257   64.55029  29.5%     -    3s
     0     0   64.65614    0   14   91.55257   64.65614  29.4%     -    3s
     0     0   64.65614    0   12   91.55257   64.65614  29.4%     -    3s
     0     0   64.94504    0   11   91.55257   64.94504  29.1%     -    4s
H    0     0                      88.4952365   64.94504  26.6%     -    4s
     0     0   64.94504    0   11   88.49524   64.94504  26.6%     -    4s
     0     0   64.94504    0   11   88.49524   64.94504  26.6%     -    4s
     0     0   64.94504    0   11   88.49524   64.94504  26.6%     -    4s
     0     0   64.94504    0   10   88.49524   64.94504  26.6%     -    4s
     0     0   64.94504    0   10   88.49524   64.94504  26.6%     -    4s
H    0     0                      87.9233998   64.94504  26.1%     -    4s
     0     0   64.94504    0   10   87.92340   64.94504  26.1%     -    5s
H    0     0                      86.0611958   64.94504  24.5%     -    6s
H    0     0                      80.8411256   64.94504  19.7%     -   12s
     0     2   64.94504    0   10   80.84113   64.94504  19.7%     -   12s
    99   107   70.40579    7   13   80.84113   68.58669  15.2%   690   18s
   135   122   72.39328    8   12   80.84113   68.77908  14.9%   645   24s
   263   169   80.36415   10   10   80.84113   68.77908  14.9%   467   28s
   500   214   74.08700    9   10   80.84113   69.64819  13.8%   398   53s
   966   233   80.51122   18    3   80.84113   69.64819  13.8%   315   55s

Cutting planes:
  Gomory: 4
  Implied bound: 6
  MIR: 419
  Relax-and-lift: 53

Explored 2272 nodes (544911 simplex iterations) in 58.29 seconds (91.78 work units)
Thread count was 36 (of 36 available processors)

Solution count 9: 80.8411 86.0612 87.9234 ... 105.392

Optimal solution found (tolerance 1.00e-02)
Best objective 8.084112560163e+01, best bound 8.084112560163e+01, gap 0.0000%

Gurobi 9.5.0 (linux64) logging started Thu Dec  7 22:33:34 2023

Set parameter LogFile to value "/lustre1/scratch/348/vsc34888/JointResearch/05.Models/06.Benchmarking/B.Operation_cost/RTS24_mod1_ByStages_nc90/openStarNet_RTS24_mod1_ByStages_nc90.log"
Set parameter Method to value 2
Set parameter MIPFocus to value 1
Set parameter Presolve to value 2
Set parameter RINS to value 100
Set parameter MIPGap to value 0.01
Set parameter Threads to value 36
Set parameter TimeLimit to value 259200
Set parameter IterationLimit to value 760000000
No parameters matching 'relax_integrality' found
Gurobi Optimizer version 9.5.0 build v9.5.0rc5 (linux64)
Thread count: 36 physical cores, 36 logical processors, using up to 36 threads
Optimize a model with 38343 rows, 25863 columns and 95404 nonzeros
Model fingerprint: 0xdd3cb471
Coefficient statistics:
  Matrix range     [8e-04, 6e+02]
  Objective range  [1e+00, 1e+00]
  Bounds range     [3e-05, 3e+00]
  RHS range        [3e-05, 2e+01]
Presolve removed 31759 rows and 14337 columns
Presolve time: 0.05s
Presolved: 6584 rows, 11742 columns, 29350 nonzeros

Ordering time: 0.00s

Barrier statistics:
 AA' NZ     : 1.592e+04
 Factor NZ  : 5.383e+04 (roughly 6 MB of memory)
 Factor Ops : 6.867e+05 (less than 1 second per iteration)
 Threads    : 1

                  Objective                Residual
Iter       Primal          Dual         Primal    Dual     Compl     Time
   0   2.26274541e+06 -8.93804707e+07  6.06e+00 1.09e+03  3.25e+04     0s
   1   1.94492090e+05 -5.43633978e+07  4.71e-01 2.92e-11  4.45e+03     0s
   2   9.13480349e+04 -1.93773698e+07  1.48e-01 3.67e-11  1.28e+03     0s
   3   5.31513925e+04 -4.10950897e+06  2.40e-02 4.76e-11  2.31e+02     0s
   4   3.73574195e+04 -3.83047935e+05  1.73e-03 3.27e-11  2.17e+01     0s
   5   1.48702681e+04 -1.10415831e+05  5.08e-05 2.98e-11  6.42e+00     0s
   6   4.24374180e+03 -2.24471435e+04  3.87e-06 6.20e-12  1.37e+00     0s
   7   8.66348791e+02 -2.74099911e+03  3.35e-10 7.28e-12  1.85e-01     0s
   8   3.85341489e+02 -1.08885150e+03  3.46e-12 3.64e-12  7.55e-02     0s
   9   1.93163354e+02 -3.93063838e+02  6.03e-13 4.55e-12  3.00e-02     0s
  10   1.38990582e+02 -1.01044852e+02  2.66e-13 3.64e-12  1.23e-02     0s
  11   1.06061568e+02  9.52851326e+00  1.27e-13 7.28e-12  4.95e-03     0s
  12   9.27141333e+01  5.49219435e+01  1.50e-13 7.28e-12  1.94e-03     0s
  13   8.46833574e+01  7.74144196e+01  2.19e-13 3.64e-12  3.72e-04     0s
  14   8.10045611e+01  8.05896635e+01  1.99e-12 3.64e-12  2.13e-05     0s
  15   8.08566377e+01  8.07674766e+01  4.09e-12 7.28e-12  4.57e-06     0s
  16   8.08462073e+01  8.08194673e+01  2.09e-11 3.64e-12  1.37e-06     0s
  17   8.08414410e+01  8.08391824e+01  4.03e-11 1.46e-11  1.16e-07     0s
  18   8.08411259e+01  8.08411251e+01  2.60e-11 7.28e-12  4.10e-11     0s
  19   8.08411256e+01  8.08411256e+01  2.11e-11 3.64e-12  4.10e-14     0s

Barrier solved model in 19 iterations and 0.13 seconds (0.13 work units)
Optimal objective 8.08411256e+01

Crossover log...

    1413 DPushes remaining with DInf 0.0000000e+00                 0s
       0 DPushes remaining with DInf 0.0000000e+00                 0s

     307 PPushes remaining with PInf 0.0000000e+00                 0s
       0 PPushes remaining with PInf 0.0000000e+00                 0s

  Push phase complete: Pinf 0.0000000e+00, Dinf 4.2395215e-13      0s

Iteration    Objective       Primal Inf.    Dual Inf.      Time
     332    8.0841126e+01   0.000000e+00   0.000000e+00      0s

Use crossover to convert LP symmetric solution to basic solution...
Crossover log...

       0 DPushes remaining with DInf 0.0000000e+00                 0s

     232 PPushes remaining with PInf 0.0000000e+00                 0s
       0 PPushes remaining with PInf 0.0000000e+00                 0s

  Push phase complete: Pinf 0.0000000e+00, Dinf 7.4117925e-13      0s

Iteration    Objective       Primal Inf.    Dual Inf.      Time
     574    8.0841126e+01   0.000000e+00   0.000000e+00      0s

Solved in 574 iterations and 0.19 seconds (0.16 work units)
Optimal objective  8.084112560e+01
